presolving:
(round 1, fast)       105 del vars, 106 del conss, 0 add conss, 47250 chg bounds, 0 chg sides, 0 chg coeffs, 0 upgd conss, 0 impls, 0 clqs
(round 2, fast)       105 del vars, 106 del conss, 0 add conss, 49516 chg bounds, 0 chg sides, 0 chg coeffs, 0 upgd conss, 0 impls, 0 clqs
   (0.7s) running MILP presolver
   (0.8s) MILP presolver (2 rounds): 0 aggregations, 0 fixings, 445 bound changes
(round 3, medium)     105 del vars, 106 del conss, 0 add conss, 49961 chg bounds, 0 chg sides, 0 chg coeffs, 0 upgd conss, 0 impls, 0 clqs
   (2.2s) probing cycle finished: starting next cycle
   (2.3s) symmetry computation started: requiring (bin +, int -, cont +), (fixed: bin -, int +, cont -)
   (2.6s) no symmetry present
presolving (4 rounds: 4 fast, 2 medium, 1 exhaustive):
 107 deleted vars, 106 deleted constraints, 0 added constraints, 49961 tightened bounds, 0 added holes, 0 changed sides, 0 changed coefficients
 0 implications, 0 cliques
presolved problem has 47353 variables (103 bin, 0 int, 0 impl, 47250 cont) and 9555 constraints
   9555 constraints of type <linear>
Presolving Time: 2.38

 time | node  | left  |LP iter|LP it/n|mem/heur|mdpt |vars |cons |rows |cuts |sepa|confs|strbr|  dualbound   | primalbound  |  gap   | compl. 
p 9.1s|     1 |     0 |  7342 |     - |   locks|   0 |  47k|9555 |9555 |   0 |  0 |   0 |   0 | 2.524693e+03 | 6.134940e+05 |  Large | unknown
i 9.1s|     1 |     0 |  7342 |     - |  oneopt|   0 |  47k|9555 |9555 |   0 |  0 |   0 |   0 | 2.524693e+03 | 6.033827e+05 |  Large | unknown
 16.2s|     1 |     0 | 14476 |     - |   314M |   0 |  47k|9555 |9555 |   0 |  0 |   0 |   0 | 5.692780e+05 | 6.033827e+05 |   5.99%| unknown
r16.3s|     1 |     0 | 14476 |     - |simplero|   0 |  47k|9555 |9555 |   0 |  0 |   0 |   0 | 5.692780e+05 | 6.029432e+05 |   5.91%| unknown
 17.4s|     1 |     0 | 14730 |     - |   327M |   0 |  47k|9555 |9586 |  31 |  1 |   0 |   0 | 5.757167e+05 | 6.029432e+05 |   4.73%| unknown
 19.5s|     1 |     0 | 15252 |     - |   329M |   0 |  47k|9555 |9613 |  58 |  2 |   0 |   0 | 5.844595e+05 | 6.029432e+05 |   3.16%| unknown
 19.6s|     1 |     0 | 15252 |     - |   330M |   0 |  47k|9555 |9613 |  58 |  2 |   0 |   0 | 5.844595e+05 | 6.029432e+05 |   3.16%| unknown
 20.5s|     1 |     0 | 15484 |     - |   331M |   0 |  47k|9555 |9629 |  74 |  3 |   0 |   0 | 5.880922e+05 | 6.029432e+05 |   2.53%| unknown
 21.0s|     1 |     0 | 15575 |     - |   332M |   0 |  47k|9555 |9637 |  82 |  4 |   0 |   0 | 5.893186e+05 | 6.029432e+05 |   2.31%| unknown
 22.0s|     1 |     0 | 15953 |     - |   335M |   0 |  47k|9555 |9662 | 107 |  5 |   0 |   0 | 5.924138e+05 | 6.029432e+05 |   1.78%| unknown
 22.1s|     1 |     0 | 15953 |     - |   335M |   0 |  47k|9555 |9662 | 107 |  5 |   0 |   0 | 5.924138e+05 | 6.029432e+05 |   1.78%| unknown
 22.4s|     1 |     0 | 16003 |     - |   336M |   0 |  47k|9555 |9676 | 121 |  6 |   0 |   0 | 5.927125e+05 | 6.029432e+05 |   1.73%| unknown
r22.5s|     1 |     0 | 16003 |     - |simplero|   0 |  47k|9555 |9676 | 121 |  6 |   0 |   0 | 5.927125e+05 | 6.004233e+05 |   1.30%| unknown
 23.1s|     1 |     0 | 16112 |     - |   338M |   0 |  47k|9555 |9684 | 129 |  7 |   0 |   0 | 5.929826e+05 | 6.004233e+05 |   1.25%| unknown
r23.2s|     1 |     0 | 16112 |     - |simplero|   0 |  47k|9555 |9684 | 129 |  7 |   0 |   0 | 5.929826e+05 | 6.003470e+05 |   1.24%| unknown
 time | node  | left  |LP iter|LP it/n|mem/heur|mdpt |vars |cons |rows |cuts |sepa|confs|strbr|  dualbound   | primalbound  |  gap   | compl. 
 23.3s|     1 |     0 | 16112 |     - |   338M |   0 |  47k|9555 |9684 | 129 |  7 |   0 |   0 | 5.929826e+05 | 6.003470e+05 |   1.24%| unknown
 23.7s|     1 |     0 | 16159 |     - |   341M |   0 |  47k|9555 |9690 | 135 |  8 |   0 |   0 | 5.936556e+05 | 6.003470e+05 |   1.13%| unknown
r23.8s|     1 |     0 | 16159 |     - |simplero|   0 |  47k|9555 |9690 | 135 |  8 |   0 |   0 | 5.936556e+05 | 5.994729e+05 |   0.98%| unknown
 23.9s|     1 |     0 | 16159 |     - |   341M |   0 |  47k|9555 |9690 | 135 |  8 |   0 |   0 | 5.936556e+05 | 5.994729e+05 |   0.98%| unknown
 23.9s|     1 |     0 | 16159 |     - |   341M |   0 |  47k|9555 |9690 | 135 |  8 |   0 |   0 | 5.936556e+05 | 5.994729e+05 |   0.98%| unknown
 24.4s|     1 |     0 | 16226 |     - |   342M |   0 |  47k|9555 |9704 | 149 |  9 |   0 |   0 | 5.945302e+05 | 5.994729e+05 |   0.83%| unknown
 24.5s|     1 |     0 | 16226 |     - |   342M |   0 |  47k|9555 |9704 | 149 |  9 |   0 |   0 | 5.945302e+05 | 5.994729e+05 |   0.83%| unknown
 25.1s|     1 |     0 | 16336 |     - |   343M |   0 |  47k|9555 |9718 | 163 | 10 |   0 |   0 | 5.951174e+05 | 5.994729e+05 |   0.73%| unknown
 25.3s|     1 |     0 | 16336 |     - |   344M |   0 |  47k|9555 |9718 | 163 | 10 |   0 |   0 | 5.951174e+05 | 5.994729e+05 |   0.73%| unknown
 26.7s|     1 |     0 | 16601 |     - |   345M |   0 |  47k|9555 |9732 | 177 | 11 |   0 |   0 | 5.957492e+05 | 5.994729e+05 |   0.63%| unknown
 27.2s|     1 |     0 | 16693 |     - |   346M |   0 |  47k|9555 |9736 | 181 | 12 |   0 |   0 | 5.958647e+05 | 5.994729e+05 |   0.61%| unknown
r27.4s|     1 |     0 | 16693 |     - |shifting|   0 |  47k|9555 |9736 | 181 | 12 |   0 |   0 | 5.958647e+05 | 5.988559e+05 |   0.50%| unknown
 27.6s|     1 |     0 | 16759 |     - |   349M |   0 |  47k|9555 |9743 | 188 | 13 |   0 |   0 | 5.959246e+05 | 5.988559e+05 |   0.49%| unknown
r27.9s|     1 |     0 | 16759 |     - |simplero|   0 |  47k|9555 |9743 | 188 | 13 |   0 |   0 | 5.959246e+05 | 5.987159e+05 |   0.47%| unknown
 28.0s|     1 |     0 | 16759 |     - |   350M |   0 |  47k|9555 |9743 | 188 | 13 |   0 |   0 | 5.959246e+05 | 5.987159e+05 |   0.47%| unknown
 time | node  | left  |LP iter|LP it/n|mem/heur|mdpt |vars |cons |rows |cuts |sepa|confs|strbr|  dualbound   | primalbound  |  gap   | compl. 
 28.5s|     1 |     0 | 16776 |     - |   351M |   0 |  47k|9555 |9747 | 192 | 14 |   0 |   0 | 5.959383e+05 | 5.987159e+05 |   0.47%| unknown
r28.5s|     1 |     0 | 16776 |     - |simplero|   0 |  47k|9555 |9747 | 192 | 14 |   0 |   0 | 5.959383e+05 | 5.982152e+05 |   0.38%| unknown
 28.9s|     1 |     0 | 16778 |     - |   353M |   0 |  47k|9555 |9748 | 193 | 15 |   0 |   0 | 5.959477e+05 | 5.982152e+05 |   0.38%| unknown
 29.1s|     1 |     0 | 16778 |     - |   354M |   0 |  47k|9555 |9748 | 193 | 15 |   0 |   0 | 5.959477e+05 | 5.982152e+05 |   0.38%| unknown
 29.7s|     1 |     0 | 16800 |     - |   354M |   0 |  47k|9555 |9738 | 197 | 16 |   0 |   0 | 5.960285e+05 | 5.982152e+05 |   0.37%| unknown
 29.8s|     1 |     0 | 16800 |     - |   355M |   0 |  47k|9555 |9738 | 197 | 16 |   0 |   0 | 5.960285e+05 | 5.982152e+05 |   0.37%| unknown
 30.2s|     1 |     0 | 16828 |     - |   356M |   0 |  47k|9555 |9742 | 201 | 17 |   0 |   0 | 5.960370e+05 | 5.982152e+05 |   0.37%| unknown
 30.7s|     1 |     0 | 16836 |     - |   357M |   0 |  47k|9555 |9745 | 204 | 18 |   0 |   0 | 5.960405e+05 | 5.982152e+05 |   0.36%| unknown
 31.1s|     1 |     0 | 16861 |     - |   358M |   0 |  47k|9555 |9749 | 208 | 19 |   0 |   0 | 5.960479e+05 | 5.982152e+05 |   0.36%| unknown
 31.3s|     1 |     0 | 16867 |     - |   361M |   0 |  47k|9555 |9750 | 209 | 20 |   0 |   0 | 5.960580e+05 | 5.982152e+05 |   0.36%| unknown
 31.6s|     1 |     0 | 16898 |     - |   361M |   0 |  47k|9555 |9754 | 213 | 21 |   0 |   0 | 5.960815e+05 | 5.982152e+05 |   0.36%| unknown
 32.0s|     1 |     0 | 16912 |     - |   362M |   0 |  47k|9555 |9724 | 216 | 22 |   0 |   0 | 5.960918e+05 | 5.982152e+05 |   0.36%| unknown
 32.5s|     1 |     0 | 16950 |     - |   362M |   0 |  47k|9555 |9728 | 220 | 23 |   0 |   0 | 5.961072e+05 | 5.982152e+05 |   0.35%| unknown
 32.9s|     1 |     0 | 16992 |     - |   364M |   0 |  47k|9555 |9733 | 225 | 24 |   0 |   0 | 5.961159e+05 | 5.982152e+05 |   0.35%| unknown
 33.3s|     1 |     0 | 17024 |     - |   364M |   0 |  47k|9555 |9739 | 231 | 25 |   0 |   0 | 5.961220e+05 | 5.982152e+05 |   0.35%| unknown
 time | node  | left  |LP iter|LP it/n|mem/heur|mdpt |vars |cons |rows |cuts |sepa|confs|strbr|  dualbound   | primalbound  |  gap   | compl. 
 33.7s|     1 |     0 | 17029 |     - |   365M |   0 |  47k|9555 |9740 | 232 | 26 |   0 |   0 | 5.961296e+05 | 5.982152e+05 |   0.35%| unknown
 34.4s|     1 |     0 | 17033 |     - |   365M |   0 |  47k|9555 |9742 | 234 | 27 |   0 |   0 | 5.961329e+05 | 5.982152e+05 |   0.35%| unknown
r35.4s|     1 |     0 | 17369 |     - |intshift|   0 |  47k|9555 |9742 | 234 | 27 |   0 |   0 | 5.961329e+05 | 5.980086e+05 |   0.31%| unknown
(run 1, node 1) restarting after 16 global fixings of integer variables

(restart) converted 185 cuts from the global cut pool into linear constraints

presolving:
(round 1, fast)       16 del vars, 0 del conss, 0 add conss, 2525 chg bounds, 0 chg sides, 0 chg coeffs, 0 upgd conss, 0 impls, 0 clqs
presolving (2 rounds: 2 fast, 1 medium, 1 exhaustive):
 16 deleted vars, 1 deleted constraints, 0 added constraints, 2539 tightened bounds, 0 added holes, 0 changed sides, 2 changed coefficients
 0 implications, 0 cliques
presolved problem has 47337 variables (87 bin, 0 int, 0 impl, 47250 cont) and 9742 constraints
   9740 constraints of type <linear>
      2 constraints of type <logicor>
Presolving Time: 3.33
transformed 38/38 original solutions to the transformed problem space

 time | node  | left  |LP iter|LP it/n|mem/heur|mdpt |vars |cons |rows |cuts |sepa|confs|strbr|  dualbound   | primalbound  |  gap   | compl. 
i44.3s|     1 |     0 | 18264 |     - |  oneopt|   0 |  47k|9742 |9740 |   0 |  0 |  14k|   0 | 5.961329e+05 | 5.974680e+05 |   0.22%| unknown
 60.2s|     1 |     0 | 29614 |     - |   415M |   0 |  47k|9742 |9740 |   0 |  0 |  14k|   0 | 5.961329e+05 | 5.974680e+05 |   0.22%| unknown
 61.2s|     1 |     0 | 29614 |     - |   415M |   0 |  47k|9742 |9740 |   0 |  0 |  14k|   0 | 5.961329e+05 | 5.974680e+05 |   0.22%| unknown
 62.0s|     1 |     0 | 29765 |     - |   417M |   0 |  47k|9742 |9742 |   2 |  1 |  14k|   0 | 5.963033e+05 | 5.974680e+05 |   0.20%| unknown
 62.2s|     1 |     0 | 29765 |     - |   419M |   0 |  47k|9742 |9742 |   2 |  1 |  14k|   0 | 5.963033e+05 | 5.974680e+05 |   0.20%| unknown
 62.8s|     1 |     0 | 29800 |     - |   419M |   0 |  47k|9742 |9745 |   5 |  2 |  14k|   0 | 5.963102e+05 | 5.974680e+05 |   0.19%| unknown
 63.0s|     1 |     0 | 29800 |     - |   419M |   0 |  47k|9742 |9745 |   5 |  2 |  14k|   0 | 5.963102e+05 | 5.974680e+05 |   0.19%| unknown
 63.5s|     1 |     0 | 29843 |     - |   419M |   0 |  47k|9742 |9751 |  11 |  3 |  14k|   0 | 5.963163e+05 | 5.974680e+05 |   0.19%| unknown
 64.2s|     1 |     0 | 29912 |     - |   421M |   0 |  47k|9742 |9753 |  13 |  4 |  14k|   0 | 5.963259e+05 | 5.974680e+05 |   0.19%| unknown
 64.6s|     1 |     0 | 29949 |     - |   422M |   0 |  47k|9742 |9754 |  14 |  5 |  14k|   0 | 5.963371e+05 | 5.974680e+05 |   0.19%| unknown
 65.2s|     1 |     0 | 29973 |     - |   424M |   0 |  47k|9742 |9757 |  17 |  6 |  14k|   0 | 5.963496e+05 | 5.974680e+05 |   0.19%| unknown
 65.7s|     1 |     0 | 30064 |     - |   426M |   0 |  47k|9742 |9758 |  18 |  7 |  14k|   0 | 5.964033e+05 | 5.974680e+05 |   0.18%| unknown
 66.1s|     1 |     0 | 30100 |     - |   427M |   0 |  47k|9742 |9760 |  20 |  8 |  14k|   0 | 5.964097e+05 | 5.974680e+05 |   0.18%| unknown
 66.4s|     1 |     0 | 30194 |     - |   429M |   0 |  47k|9742 |9761 |  21 |  9 |  14k|   0 | 5.964162e+05 | 5.974680e+05 |   0.18%| unknown
 66.8s|     1 |     0 | 30256 |     - |   432M |   0 |  47k|9742 |9764 |  24 | 10 |  14k|   0 | 5.964194e+05 | 5.974680e+05 |   0.18%| unknown
 time | node  | left  |LP iter|LP it/n|mem/heur|mdpt |vars |cons |rows |cuts |sepa|confs|strbr|  dualbound   | primalbound  |  gap   | compl. 
 67.2s|     1 |     0 | 30265 |     - |   433M |   0 |  47k|9742 |9733 |  27 | 11 |  14k|   0 | 5.964200e+05 | 5.974680e+05 |   0.18%| unknown
r67.2s|     1 |     0 | 30265 |     - |simplero|   0 |  47k|9742 |9733 |  27 | 11 |  14k|   0 | 5.964200e+05 | 5.964788e+05 |   0.01%| unknown
 67.9s|     1 |     0 | 30265 |     - |   435M |   0 |  47k|9715 |9733 |  27 | 13 |  14k|   0 | 5.964200e+05 | 5.964788e+05 |   0.01%| unknown
 68.5s|     1 |     0 | 30290 |     - |   437M |   0 |  47k|9715 |9733 |  27 | 15 |  49k|   0 | 5.964788e+05 | 5.964788e+05 |   0.00%| unknown

SCIP Status        : problem is solved [optimal solution found]
Solving Time (sec) : 68.48
Solving Nodes      : 1 (total of 2 nodes in 2 runs)
Primal Bound       : +5.96478778735714e+05 (51 solutions)
Dual Bound         : +5.96478778735714e+05
Gap                : 0.00 %
Solve Status: optimal
Solve Time: 68.54 seconds
